20 965
525 7 505 7 381 7 219 9 28 11 852 15 669 21
525 7 482 7 362 7 118 9 855 11 676 18
525 7 446 7 265 7 65 9 890 11 728 18
525 7 504 7 427 11
525 7 504 7 427 11
525 7 504 7 427 11
525 7 504 7 427 11
525 7 482 7 394 7 212 9 29 11 822 15 623 21
528 7 482 7 360 7 199 12
528 7 482 7 360 7 199 12
521 7 475 7 329 11
525 7 502 7 412 7 255 9 80 11 873 18
525 7 479 7 358 7 208 9 12 11 785 15 613 22
525 7 484 7 368 7 123 9 857 11 631 18
533 7
533 7
533 7
533 7
533 7
533 7
